NAME          transport
ROWS
 L  R0001
 L  R0002
 G  R0003
 G  R0004
 G  R0005
 N  R0006
COLUMNS
    C0001     R0001     1
    C0001     R0003     1
    C0001     R0006     0.225
    C0002     R0001     1
    C0002     R0004     1
    C0002     R0006     0.153
    C0003     R0001     1
    C0003     R0005     1
    C0003     R0006     0.162
    C0004     R0002     1
    C0004     R0003     1
    C0004     R0006     0.225
    C0005     R0002     1
    C0005     R0004     1
    C0005     R0006     0.162
    C0006     R0002     1
    C0006     R0005     1
    C0006     R0006     0.126
RHS
    B         R0001     350
    B         R0002     600
    B         R0003     325
    B         R0004     300
    B         R0005     275
ENDATA
